20
3
20339
352 263 304
false
0.25
36 44 28 28 24 17 39 40 21 24 7 31 29 37 2 9 35 34 13 4
27 35 40 3 23 38 42 31 26 10 30 23 18 31 11 35 21 29 22 10
10 13 25 22 39 44 12 50 6 48 7 5 39 37 10 9 38 14 25 11
34 2 78 26 18 25 90 21 20 74 53 84 41 35 27 97 33 29 59 12
0 0 30 0 0 36 0 0 0 28 0 47 0 0 39 23 76 0 0 0
0 0 0 0 0 0 0 0 0 0 32 0 0 0 32 0 0 0 0
0 68 0 0 33 0 0 0 0 68 0 0 0 0 0 0 0 0
0 0 0 0 0 0 11 0 29 0 32 0 0 85 0 0 0
0 59 50 0 0 0 0 0 0 0 0 0 0 0 0 67
0 0 0 40 60 0 0 0 0 19 96 0 6 0 0
0 0 0 0 0 26 0 0 0 74 0 9 0 0
0 0 61 0 0 16 97 0 0 52 20 0 0
0 2 0 0 0 0 0 0 56 0 0 0
0 53 0 42 0 0 0 0 0 0 0
0 24 69 0 0 0 86 28 22 0
0 86 0 0 63 0 0 0 0
0 0 0 71 68 0 0 0
0 0 0 0 0 0 76
0 0 4 0 26 66
0 0 0 2 67
0 66 0 0
0 33 92
0 0
0 0 49 41 6 54 0 0 0 0 0 0 16 0 0 0 12 0 0
0 64 0 0 0 0 0 0 0 0 55 0 58 0 0 0 0 0
0 0 86 90 0 0 0 0 0 0 0 48 0 40 60 0 0
0 0 0 0 0 0 0 0 38 0 58 0 0 0 0 0
0 0 0 0 100 0 0 0 38 0 0 0 0 0 0
0 0 0 0 0 0 0 0 0 0 0 0 0 0
0 84 0 0 0 0 0 0 0 0 0 0 0
0 90 0 0 0 89 0 0 0 100 0 0
0 23 0 0 0 0 0 0 0 21 0
0 0 0 0 0 0 0 17 0 0
0 0 0 0 64 0 0 58 0
0 23 47 0 56 0 0 0
0 0 0 0 0 35 0
0 0 0 13 0 90
0 0 0 0 0
0 0 0 0
0 3 4
0 0
0
0 0 0 77 0 0 0 0 0 0 0 82 0 0 0 0 0 0
0 0 0 0 0 0 0 0 0 0 0 0 0 0 0 0 30
0 0 0 0 0 0 0 0 0 0 0 19 0 0 0 0
0 0 0 0 0 0 0 0 0 0 0 0 0 0 0
0 0 0 0 0 0 22 0 31 0 0 0 0 0
0 0 0 66 74 0 0 0 0 0 0 0 0
0 0 45 0 0 0 0 0 0 0 0 0
0 0 55 0 0 0 0 31 0 54 0
0 0 0 0 51 0 0 0 0 98
0 0 0 0 0 0 24 0 68
0 0 0 0 0 2 0 49
0 71 0 0 0 0 68
0 0 79 0 0 69
0 82 0 0 0
0 0 57 39
0 0 8
0 25
0
0 0 0 0 0 0 0 33 91 53 1 0 0 0 36 0 0
0 0 13 45 0 0 0 0 0 0 0 0 0 0 17 0
0 0 45 0 0 15 0 0 61 0 0 0 0 0 97
0 0 4 12 0 95 0 96 0 0 24 0 0 0
0 0 0 0 0 0 0 0 0 20 0 0 0
0 99 0 0 0 90 0 26 0 0 0 0
0 0 0 0 0 0 0 50 0 0 90
0 0 0 0 80 18 0 61 0 0
0 0 40 0 0 71 0 0 0
0 0 0 0 0 0 0 0
0 51 0 90 0 0 0
0 0 0 0 0 0
0 0 0 0 0
0 12 0 0
0 0 0
0 25
0
0 59 0 23 19 0 95 16 0 43 0 0 0 65 0 0
0 0 88 26 0 0 0 0 0 0 87 0 0 0 0
0 0 4 0 25 20 10 0 0 0 0 72 73 0
0 0 0 63 6 0 9 9 0 0 6 3 0
0 98 0 0 0 0 0 28 77 42 6 0
0 0 0 0 0 0 0 0 0 66 0
0 0 0 16 0 0 0 65 0 24
0 0 0 0 0 0 0 31 0
0 0 79 42 22 0 0 11
0 0 0 0 0 0 90
0 18 0 65 0 0
0 0 22 0 0
0 0 0 0
0 0 67
0 0
0
0 0 0 0 0 0 44 0 0 0 0 0 0 4 0
0 0 0 0 0 0 0 0 0 95 0 94 0 50
0 0 56 0 0 0 0 0 0 0 0 0 28
0 7 0 0 59 0 93 0 0 0 0 50
0 66 0 23 0 0 0 0 0 0 0
0 0 0 64 21 23 0 0 0 0
0 0 0 0 0 0 40 0 0
0 0 53 0 0 0 0 0
0 0 0 0 0 61 0
0 0 0 0 1 0
0 0 0 0 0
0 0 0 0
0 0 0
0 0
0
0 0 0 40 0 7 0 0 0 0 0 0 0 0
0 26 0 0 0 0 0 0 0 0 0 0 0
0 0 0 0 17 0 0 42 0 0 46 0
0 0 0 0 0 0 0 0 0 0 0
0 0 64 0 43 0 60 0 0 95
0 22 0 0 0 0 28 24 0
0 0 0 0 0 0 0 0
0 52 24 0 64 0 0
0 0 0 22 0 0
0 0 0 0 0
0 0 0 21
0 0 0
0 70
0
0 0 0 96 0 0 0 0 0 0 0 66 0
0 97 0 0 0 0 0 37 0 55 0 0
0 0 0 32 0 0 0 0 0 62 47
0 0 0 0 0 0 0 0 0 0
0 0 0 0 0 0 0 0 21
0 69 0 95 0 0 60 0
0 63 0 0 34 0 27
0 0 10 0 0 0
0 84 0 0 64
0 0 0 20
0 58 0
0 0
0
0 82 38 17 0 0 90 10 99 0 0 0
0 0 0 0 97 0 0 0 24 0 0
0 0 88 34 0 0 0 0 5 0
0 0 0 0 0 0 0 0 0
0 14 0 0 98 0 0 0
0 51 49 0 22 0 0
0 0 99 87 38 0
0 30 0 13 30
0 0 0 0
0 0 0
0 0
0
0 41 0 0 0 0 33 0 0 0 66
0 62 0 0 0 0 0 0 0 0
0 47 4 0 45 0 0 44 0
0 0 0 0 0 0 0 0
0 0 0 0 0 0 0
0 36 22 81 0 0
0 0 0 0 71
0 0 76 0
0 0 0
0 0
0
0 0 11 0 26 0 0 0 6 0
0 17 0 100 0 0 0 0 82
0 13 83 37 0 0 0 59
0 0 0 85 0 68 57
0 37 0 0 0 0
0 0 0 0 0
0 0 0 0
0 0 0
0 40
0
0 23 0 99 87 98 62 100 0
0 27 0 0 0 100 0 0
0 0 0 0 24 0 0
0 62 0 56 0 38
0 0 0 0 0
0 0 0 0
0 92 0
0 0
0
0 0 99 17 0 0 0 0
0 9 0 0 0 29 0
0 0 0 0 0 12
0 0 0 0 0
0 0 0 48
0 0 0
0 62
0
0 0 0 55 38 0 0
0 0 0 0 26 0
0 0 0 0 0
0 0 0 0
0 0 0
0 0
0
0 93 0 0 64 0
0 0 0 0 0
0 0 0 0
0 0 64
0 0
0
0 0 0 91 7
0 49 56 0
0 0 86
0 56
0
0 0 0 0
0 21 54
0 0
0
0 0 80
0 97
0
0 21
0
0
2043 1620 2174 2622 1677 1941 2310 2195 2538 2614 2841 2521 2248 2604 3109 2218 2463 2395 2073 2855
112.2388888888889 69.23976023976024 72.9842857142857 362.2748917748918 61.92934782608696 69.7896847734309 102.24358974358974 56.52715053763441 213.8241758241758 141.59166666666667 302.1380952380952 231.71042543244508 86.68238530307497 74.91891891891892 716.0121212121212 185.42010582010585 84.15764411027568 108.03293731285619 112.20293706293707 419.5984848484848
